args: ../partial/bp/M10.cnf cubes/M10.cubes 100 50 12
iteration: 0
running icadical
lim: 100
refuted: 98898, progress: 98898/568214

iteration: 1
running icadical
lim: 100
refuted: 79302, progress: 178200/568214

iteration: 2
running icadical
lim: 100
refuted: 91278, progress: 269478/568214

iteration: 3
running icadical
lim: 100
refuted: 116198, progress: 385676/568214

iteration: 4
running icadical
lim: 100
refuted: 115275, progress: 500951/568214

iteration: 5
running icadical
lim: 100
refuted: 67263, progress: 568214/568214

c --- [ banner ] -------------------------------------------------------------
c 
c CaDiCaL Radically Simplified CDCL SAT Solver
c Copyright (c) 2016-2019 Armin Biere, JKU Linz
c 
c Version 1.2.1 92d72896c49b30ad2d50c8e1061ca0681cd23e60
c g++ (GCC) 4.8.5 20150623 (Red Hat 4.8.5-39) -Wall -Wextra -O3 -DNDEBUG -std=c++0x
c Thu Jan 30 22:37:32 EST 2020 Linux lov6.int.autonlab.org 3.10.0-1062.4.1.el7.x86_64 x86_64
c 
c --- [ parsing input ] ------------------------------------------------------
c 
c reading DIMACS file from '<stdin>' (use '-h' for a list of common options)
c found 'p cnf 6903 282647' header
c parsed 850861 clauses in 1.88 seconds process time
c disconnecting from '<stdin>'
c after reading 15899106 bytes 15.2 MB
c 
c --- [ options ] ------------------------------------------------------------
c 
c   --report=false                 (different from default 'true')
c 
c --- [ solving ] ------------------------------------------------------------
c 
c 
c --- [ result ] -------------------------------------------------------------
c 
s UNSATISFIABLE
c 
c --- [ run-time profiling ] -------------------------------------------------
c 
c process time taken by individual solving procedures
c (percentage relative to process time for solving)
c 
c         0.00   97.80% search
c         0.00   61.55% lucky
c         0.00   35.81% unstable
c         0.00    0.00% simplify
c   =================================
c         0.00    0.08% solve
c 
c last line shows process time for solving
c (percentage relative to total process time)
c 
c --- [ statistics ] ---------------------------------------------------------
c 
c conflicts:                     3      1887.98    per second
c decisions:                     2      1258.65    per second
c fixed:                      3457        50.08 %  of all variables
c learned:                       2        66.67 %  per conflict
c minimized:                     0         0.00 %  learned literals
c propagations:                186         0.12 M  per second
c 
c seconds are measured in process time for solving
c 
c --- [ resources ] ----------------------------------------------------------
c 
c total process time since initialization:         1.88    seconds
c total real time since initialization:            2.65    seconds
c maximum resident set size of process:          103.95    MB
c 
c --- [ shutting down ] ------------------------------------------------------
c 
c exit 20

real	114m44.335s
user	1296m40.248s
sys	4m46.439s
